1,39428,12344,14301,49727,41490,42226,21085,21923,50545,30817,12109,47932,9194,29148,49948,45310,597,17572,18092,1504,43966,36489,3395,49658,16974,41109,19073,32228,2559,35163,3691,43198,40694,9810,45766,40155,8937,35850,14871,41777,38648,37546,1359,4767,45548,28814,6037,24354,604,31251,4227,31792,20922,41797,12275,43217,46055,7695,12985,10103,44172,39942,45218,49155,25513,21631,863,33710,37496,4320,43361,23303,26396,42819,46890,44758,27820,39908,21316,19134,
2,597,604,863,604,597,863,597,597,2821,3017,9141,4526,2382,429,7545,5387,1508,2298,582,1437,2413,1934,1868,878,1491,2503,3831,4085,2799,633,1776,3719,512,517,562,1248,10027,2676,1612,346,2747,1170,1939,2787,632,14496,2339,1275,1183,1926,1437,8686,431,1903,2315,1069,10764,878,8538,916,2368,793,1888,4848,6482,1437,2745,1746,2659,2022,999,429,19547,1879,797,17739,9288,3455,4110,4772,
3,346,429,429,346,429,346,431,346,5716,355,921,921,1201,950,562,3065,795,320,1170,732,429,597,1868,567,429,1079,597,597,1151,597,263,4237,962,2753,7130,890,604,1188,7373,597,429,597,4631,597,24327,429,12296,6909,349,962,426,431,962,652,346,429,1858,604,429,517,1234,411,346,1196,1170,604,431,1537,517,597,429,597,3214,23754,2971,2331,17414,25735,21209,11481,
4,263,320,320,263,263,346,346,346,426,429,349,887,2764,260,6657,431,6211,349,517,414,426,346,429,597,597,744,346,429,260,1460,504,426,346,429,567,429,429,1813,517,429,263,429,887,8055,597,263,426,349,349,429,263,504,6657,349,429,263,429,887,349,346,346,263,349,263,426,1981,431,431,346,426,429,597,4542,4342,16280,43934,15454,11743,597,21166,
5,260,260,260,263,263,260,260,263,429,260,429,349,15960,263,429,320,349,504,260,260,346,597,2204,597,429,263,414,263,260,263,260,346,263,414,346,426,349,263,263,263,414,349,426,349,263,263,320,349,260,260,263,517,260,263,263,263,346,429,349,429,263,349,426,429,2300,260,429,429,414,517,1191,260,51168,320,41864,44735,16886,10322,37255,9183,
6,260,260,260,260,260,260,260,260,260,263,263,260,426,349,5560,260,6650,320,260,260,260,414,260,263,263,260,349,263,260,263,263,260,263,23982,426,263,263,349,260,260,263,346,429,426,263,263,263,263,24153,263,414,263,429,349,263,260,263,260,260,426,263,260,263,2580,263,263,320,263,263,260,260,429,58133,12502,25108,23312,11180,349,10946,39384,
7,260,260,260,260,260,260,260,260,1010,260,263,263,159,260,260,263,263,263,263,260,260,263,260,260,260,263,260,260,260,29498,263,159,3182,260,263,349,263,263,263,260,260,263,1010,260,4068,260,263,263,260,263,260,320,349,263,263,263,4068,260,263,263,260,260,263,429,260,263,159,260,260,260,260,263,47076,7970,12166,5236,8312,263,39585,2801,
8,159,159,159,260,260,260,260,260,260,260,260,260,260,2081,260,260,260,260,260,263,260,260,260,159,260,260,260,263,260,260,260,260,260,260,260,263,260,260,260,260,263,260,263,260,263,260,260,260,260,260,263,260,260,260,263,260,260,263,263,260,260,263,260,260,263,260,260,263,263,260,260,263,260,33374,13147,45932,19713,25687,43494,46785,
9,159,159,159,159,260,260,260,260,260,159,3795,260,260,260,260,263,260,263,260,263,260,263,260,260,260,260,10278,260,260,260,159,260,260,260,260,159,159,1012,260,4327,159,263,11842,260,260,263,260,260,260,260,260,260,260,260,263,260,263,260,263,260,260,260,260,260,260,260,159,2188,260,260,260,260,260,46805,352,260,260,159,42440,6455,
10,159,159,159,159,159,159,159,159,260,260,159,260,260,260,260,260,260,260,260,260,1682,159,260,159,260,159,260,260,159,159,159,159,260,159,159,159,159,159,159,260,260,260,159,263,260,260,159,260,260,260,260,159,159,159,159,260,260,159,260,260,260,260,260,260,260,260,260,11842,260,159,159,260,8952,3155,21797,32209,14774,159,260,35360,
11,159,159,159,159,159,159,159,159,159,159,159,159,159,159,159,260,159,260,260,260,159,159,159,159,260,159,159,159,159,159,28271,260,159,159,260,260,159,12427,260,260,260,159,10769,159,159,159,159,159,260,159,260,159,159,159,260,159,260,159,159,159,159,159,159,260,260,159,260,159,159,260,159,159,45300,34700,159,3185,1337,25960,38401,15405,
12,159,159,159,159,159,159,159,159,159,159,159,159,10285,159,159,159,159,159,159,159,159,159,159,159,159,6872,159,159,159,159,159,159,159,159,159,159,159,159,159,159,159,159,159,159,159,22866,159,159,25960,159,159,159,159,159,159,159,159,159,159,159,260,159,159,159,159,260,72,159,159,159,159,159,1241,39938,159,39669,159,30143,13602,39787,
13,72,159,159,159,159,159,159,159,159,159,159,159,159,159,159,159,3826,159,159,159,159,159,159,159,159,159,159,72,159,159,159,159,159,159,159,159,159,159,159,159,159,159,159,159,159,159,159,159,159,10274,159,159,159,159,159,159,159,72,72,159,3879,159,159,159,159,159,159,159,159,10285,72,159,12534,4123,12540,20688,39414,159,36188,25465,
14,72,72,72,72,72,159,159,159,159,72,159,72,159,159,159,159,159,159,72,72,159,3690,159,72,159,159,159,159,159,159,1572,159,159,72,159,159,159,159,72,72,159,159,159,159,72,159,159,159,159,159,159,159,159,159,159,159,159,72,72,159,72,159,72,72,159,72,159,159,72,159,159,72,7926,37811,159,26870,20608,1077,21132,26449,
15,72,72,72,72,72,72,72,72,72,159,72,72,159,72,159,72,159,159,72,72,1812,72,72,72,72,72,159,159,72,72,159,72,72,72,159,72,159,159,72,72,72,72,72,72,159,159,72,72,72,72,72,72,159,72,72,159,72,159,72,159,72,72,72,72,72,159,72,72,159,72,72,72,72,24589,72,72,49074,72,72,31349,
16,72,72,72,72,72,72,72,72,72,72,72,72,72,72,72,72,72,72,72,72,72,72,72,72,72,72,72,72,72,72,72,72,72,72,72,72,72,72,72,72,72,72,159,72,72,72,72,72,72,159,72,72,72,72,72,72,72,72,72,72,72,72,72,72,159,72,72,72,72,72,72,72,50958,72,56590,39911,72,72,72,55817,
17,72,72,72,72,72,72,72,72,72,72,72,72,72,72,72,72,72,72,72,72,72,72,72,72,72,72,72,72,72,72,72,72,72,72,72,72,72,72,72,72,72,72,72,72,72,72,72,72,72,72,72,72,72,72,72,72,72,72,72,72,72,72,72,72,72,72,72,72,72,72,72,72,72,49156,72,72,72,50643,72,41575,
18,72,72,72,72,72,72,72,72,72,72,72,72,72,72,72,72,72,72,72,72,72,72,72,72,72,72,72,72,72,72,72,72,72,72,72,72,72,72,72,72,72,72,72,72,72,72,72,72,72,72,72,72,72,72,72,72,72,72,72,72,72,72,72,72,72,72,72,72,72,72,72,72,23604,72,72,72,72,72,14561,21985,
19,72,72,72,72,72,72,72,72,72,72,72,72,72,72,72,72,72,72,72,72,72,72,72,72,72,72,72,72,72,72,72,72,72,72,72,72,72,72,72,72,72,72,72,72,72,72,72,72,72,72,72,72,72,72,72,72,72,72,72,72,72,72,72,72,72,72,72,72,72,72,72,72,72,46236,38400,72,35574,13868,44910,17246,
20,72,72,72,72,72,72,72,72,72,72,72,72,72,72,72,72,72,72,72,72,72,72,72,72,72,13512,72,72,72,72,72,72,72,72,72,72,72,72,72,72,72,72,72,72,72,72,72,72,72,72,72,72,72,72,72,72,72,72,72,11338,72,72,72,72,72,72,72,13512,72,72,72,72,72,72,72,72,72,72,11831,28162,
21,72,72,72,72,72,72,72,72,72,72,72,72,72,72,72,72,72,72,72,72,72,72,72,72,72,72,72,72,72,72,32280,72,72,72,72,72,72,72,72,72,72,72,72,72,72,72,72,72,72,72,72,72,72,72,72,72,72,72,72,72,72,72,72,72,72,72,72,72,72,72,72,72,72,41179,72,31298,72,72,72,72,
22,72,72,72,72,72,72,72,72,72,72,72,72,72,72,72,72,72,72,72,72,72,72,72,72,72,72,72,72,72,72,72,72,72,72,72,72,72,72,72,72,72,72,72,72,72,72,72,72,72,72,72,72,72,72,72,72,72,72,72,72,72,72,72,72,72,72,72,72,72,72,72,72,22259,46687,72,72,72,72,72,26063,
23,72,72,72,72,72,72,72,72,72,72,72,72,72,72,72,72,72,72,72,72,72,72,72,72,72,72,72,72,72,72,72,72,72,72,72,72,72,72,72,72,72,72,72,72,72,72,72,72,72,72,72,72,72,72,72,72,72,72,72,72,72,72,72,72,72,72,72,72,72,72,72,72,53931,72,72,49665,59963,72,41971,18637,
24,72,72,72,72,72,72,72,72,72,72,72,72,72,72,72,72,72,72,72,72,72,72,72,72,72,72,72,72,72,72,72,72,72,72,72,72,72,72,18468,72,72,72,72,72,72,72,72,72,72,72,72,72,72,72,72,72,72,72,72,72,72,18468,72,72,72,72,72,72,11722,72,72,72,72,48999,19495,72,59781,72,72,56439,
25,72,72,72,72,72,72,72,72,72,72,72,72,72,72,72,72,72,72,72,72,72,72,72,72,72,72,72,72,72,72,72,72,72,72,72,72,72,72,72,72,72,72,72,72,72,72,72,72,72,72,72,72,72,72,72,72,72,72,72,72,72,72,72,72,72,72,72,72,72,72,72,72,72,45287,31194,72,36929,72,41603,33864,
26,72,72,72,72,72,72,72,72,72,72,72,72,72,72,72,72,72,72,72,72,72,72,72,72,72,72,72,72,72,72,72,72,72,72,72,72,72,72,72,72,72,72,72,72,72,72,72,72,72,72,72,72,72,72,72,72,72,72,13031,72,72,72,72,72,72,72,72,72,72,72,72,72,72,50894,72,56084,72,31050,72,72,
27,72,72,72,72,72,72,72,72,72,72,72,72,72,72,72,72,72,72,72,72,72,72,72,72,72,72,72,72,72,72,72,72,72,72,72,72,72,72,72,72,72,72,72,72,72,72,72,72,72,72,72,72,72,72,72,72,72,72,72,72,72,72,72,72,72,72,72,72,72,72,72,72,31586,13104,72,29850,72,41469,10473,21656,
28,72,72,72,72,72,72,72,72,72,72,72,72,72,72,72,72,72,72,72,72,72,72,72,72,72,72,72,72,72,72,72,72,72,72,72,72,72,72,72,72,72,72,72,72,72,72,72,72,72,72,72,72,72,72,72,72,72,72,72,72,72,72,72,72,72,72,72,72,72,72,72,72,44245,51044,50314,59379,49939,48169,32302,47777,
29,72,72,72,72,72,72,72,72,72,72,72,72,72,72,72,72,72,72,72,72,72,72,72,72,72,72,72,72,72,72,72,72,72,72,72,55430,72,72,72,72,72,21561,72,72,72,72,72,72,72,72,72,72,72,72,72,72,72,72,72,72,72,72,72,72,72,72,72,72,72,72,72,72,72,40140,72,72,72,12194,72,57983,
30,72,72,72,72,72,72,72,72,72,72,72,72,72,72,72,72,72,72,72,72,72,72,72,72,72,72,72,72,72,72,72,72,72,72,72,72,72,72,72,72,72,72,72,72,72,72,72,72,72,72,72,72,72,72,72,72,72,72,72,72,72,72,72,72,72,72,72,72,72,72,72,72,72,72,27435,43060,23744,72,72,72,
31,72,72,72,72,72,72,72,72,72,72,72,72,72,72,72,72,72,72,72,72,72,12679,72,72,72,14363,72,10117,72,72,72,72,72,72,72,72,72,72,72,72,72,72,30453,72,72,72,72,72,72,72,72,72,72,72,72,72,72,72,72,784,72,72,72,72,72,72,72,72,72,72,72,72,20324,72,53286,19258,72,18290,72,72,
32,72,72,72,72,72,72,72,72,72,72,72,72,72,72,72,72,72,72,72,72,72,72,72,72,72,26556,72,72,72,72,72,72,72,72,72,72,72,72,72,72,32654,72,72,72,72,72,72,72,72,72,72,72,72,72,72,72,72,72,72,72,72,72,72,72,72,72,72,72,72,72,72,72,46838,39666,72,33795,72,14731,34726,34374,
33,72,72,72,72,72,72,72,72,72,72,72,72,72,72,72,72,72,72,72,72,72,72,72,72,72,72,72,72,72,72,72,72,72,72,72,72,72,72,72,72,72,72,72,72,72,72,72,72,72,72,72,72,72,72,72,72,72,72,72,72,72,72,72,72,72,72,72,72,72,72,72,72,55584,54702,28601,24317,72,72,72,72,
34,72,72,72,72,72,72,72,72,72,72,72,72,72,72,72,72,72,72,72,72,72,72,72,72,72,72,72,72,72,72,72,72,72,72,72,72,72,72,72,72,72,72,72,72,72,72,72,72,72,72,72,72,72,72,72,72,72,72,72,72,72,72,72,72,72,72,72,72,72,72,72,72,72,39818,72,25401,21645,28499,56500,72,
35,72,72,72,72,72,72,72,72,72,72,72,72,72,72,72,72,14361,72,72,72,72,72,72,72,72,72,72,72,72,72,72,72,72,72,72,72,72,24683,72,11131,72,72,72,72,72,72,72,72,72,72,72,72,72,72,72,72,72,72,72,72,72,72,72,72,72,72,72,72,72,72,72,72,60411,72,35990,13698,16995,72,15296,16899,
36,72,72,72,72,72,72,72,72,72,72,72,72,72,72,72,72,72,72,72,72,72,72,72,72,72,72,72,72,72,72,72,72,72,72,72,72,72,72,72,72,72,72,72,72,72,72,72,72,72,72,72,72,72,72,72,72,72,72,72,72,72,72,72,72,72,72,72,72,72,72,72,72,58983,49318,72,72,53092,20952,72,28627,
37,72,72,72,72,72,72,72,72,72,72,72,72,72,72,72,72,72,72,72,72,72,19269,72,72,72,72,72,72,72,72,72,72,72,72,72,72,72,72,72,72,19269,72,72,72,72,72,72,72,72,19269,72,72,72,72,31458,72,72,72,72,72,72,72,72,72,72,72,72,72,72,72,72,72,47116,20500,72,57323,72,72,72,72,
38,72,72,72,72,72,72,72,72,72,72,72,72,72,72,72,72,72,72,72,72,72,72,72,72,72,72,72,72,72,72,72,72,72,72,72,72,72,72,72,72,72,72,72,72,72,72,72,72,72,72,72,72,72,72,72,72,72,72,72,72,72,72,72,72,72,72,72,72,72,72,72,72,30282,54281,34724,47480,47304,72,52077,72,
39,72,72,72,72,72,72,72,72,72,72,72,72,72,72,72,72,72,72,72,72,72,72,72,72,72,72,72,72,72,72,72,72,72,72,72,72,72,72,72,72,72,72,72,72,72,72,72,72,72,72,72,72,72,72,72,72,72,72,72,72,72,72,72,72,72,72,72,72,72,72,72,72,72,33214,27230,10536,72,52392,30580,25227,
40,72,72,72,72,72,72,72,72,72,72,72,15102,72,72,72,72,72,72,72,72,72,72,72,72,72,72,72,72,72,72,72,72,72,72,72,72,72,72,23204,72,72,72,72,72,72,72,72,72,72,72,72,72,72,72,72,72,72,72,72,72,72,72,72,72,72,72,72,72,72,72,72,72,72,72,32580,72,23341,38898,72,72,
41,72,72,72,72,72,72,72,72,72,72,72,72,72,72,72,72,72,72,72,72,72,72,72,72,72,72,72,72,72,72,72,72,72,72,72,72,72,72,72,72,72,72,72,72,72,72,72,72,72,72,72,72,72,72,72,72,72,72,72,72,72,72,72,72,72,72,72,72,72,72,72,72,29051,72,25723,29001,72,72,45772,31484,
42,72,72,72,72,72,72,72,72,72,72,72,72,72,72,72,72,72,72,72,72,72,72,72,72,72,72,72,72,72,72,72,72,72,72,72,72,72,72,72,72,72,72,72,72,72,72,72,72,72,72,72,72,72,72,72,72,72,72,72,72,72,72,72,72,72,72,72,72,72,72,72,72,24605,72,72,72,72,54006,72,72,
43,72,72,72,72,72,72,72,72,72,72,72,72,72,72,72,72,72,72,72,72,72,72,72,72,72,72,72,72,72,72,72,72,72,72,72,72,72,72,72,72,72,72,72,72,72,72,72,72,72,72,72,72,72,72,72,72,72,72,72,72,72,72,72,72,72,72,72,72,72,72,72,72,31816,72,72,50528,45978,72,60828,72,
44,72,72,72,72,72,72,72,72,72,72,72,72,72,72,72,72,72,72,72,72,72,72,72,72,72,72,72,72,72,72,72,72,72,72,72,72,72,72,72,72,72,72,72,72,72,72,72,72,72,72,72,72,72,72,72,72,9125,72,72,72,72,72,72,72,72,72,72,72,72,72,72,72,72,72,46419,11018,21107,72,72,72,
45,72,72,72,72,72,72,72,72,72,72,72,72,72,72,72,72,72,72,72,72,72,72,72,72,72,72,72,72,72,72,72,72,72,72,72,72,72,72,72,72,72,72,72,72,72,72,72,72,72,72,72,72,72,72,72,72,72,72,72,72,72,72,72,72,72,72,72,72,72,72,72,72,72,13961,72,72,55967,49553,42285,37946,
46,72,72,72,72,72,72,72,72,72,72,72,72,72,72,72,72,72,72,72,72,72,72,72,72,72,72,72,72,72,72,72,72,72,72,72,72,72,72,72,72,72,72,72,72,72,72,72,72,72,72,72,72,72,72,72,11775,72,72,72,72,72,72,72,72,72,72,72,72,72,72,72,55687,45618,59129,18634,38492,72,72,72,51990,
47,72,72,72,72,72,72,72,72,4352,72,72,72,72,72,72,72,72,72,72,72,72,72,72,72,72,72,72,72,72,72,72,72,72,72,72,72,72,72,72,72,72,72,72,72,72,72,72,72,72,16676,72,72,72,72,72,72,72,72,72,72,72,72,72,72,72,72,72,72,72,72,72,72,48846,43737,26963,72,43917,72,35023,11594,
48,72,72,72,72,72,72,72,72,72,72,72,72,72,72,72,72,72,72,72,72,72,72,72,72,72,72,72,72,72,72,72,72,6699,72,72,72,72,72,6699,72,72,72,72,72,72,72,72,72,72,72,72,72,72,72,72,72,72,72,72,72,72,72,72,72,72,72,72,72,72,72,51885,72,72,72,72,27782,72,72,25430,72,
49,72,72,72,72,72,72,72,72,72,72,72,72,72,72,72,72,72,72,72,72,72,72,72,72,72,72,72,72,72,72,72,72,72,72,72,72,72,72,72,72,72,72,72,72,72,72,72,72,72,72,72,6699,72,72,72,72,72,72,72,72,72,72,72,72,72,72,72,72,72,72,72,72,72,72,72,72,22962,43774,56518,72,
50,72,72,72,72,72,72,72,72,72,72,72,72,72,72,72,72,72,72,72,72,72,72,72,72,72,72,72,72,72,72,48774,72,72,72,72,72,72,72,72,72,72,72,72,72,72,72,72,72,72,72,72,72,72,72,72,72,72,72,72,72,72,72,72,72,72,72,72,72,72,72,72,72,25608,54267,72,72,72,72,72,72,
51,72,72,72,72,72,72,72,72,72,72,72,72,72,72,72,72,72,72,72,72,72,72,72,72,72,72,72,72,72,72,72,72,72,72,72,72,72,72,72,72,72,72,72,72,72,72,72,72,72,72,72,72,72,72,72,72,72,36929,72,72,72,72,72,72,72,72,72,72,72,72,72,72,30885,72,53091,28075,10670,52990,72,58199,
52,72,72,72,72,72,72,72,72,72,72,72,72,72,72,72,72,72,72,72,72,72,72,72,72,72,72,72,72,72,72,72,72,72,72,72,72,72,72,72,72,72,72,72,72,72,72,72,72,72,72,72,72,72,72,72,72,72,72,72,72,72,72,72,72,72,72,72,72,72,72,72,72,72,72,72,51001,58664,12970,72,18314,
53,72,72,72,72,72,72,72,72,72,72,72,72,72,72,72,72,72,72,72,72,72,72,72,72,72,72,72,72,72,72,72,72,72,72,72,72,72,72,72,72,72,72,72,72,72,72,72,72,72,72,72,72,72,72,72,72,72,72,72,72,72,72,72,72,72,72,72,72,72,72,72,72,58072,46503,72,39322,72,72,72,72,
54,72,72,72,72,72,72,72,72,72,72,72,72,72,72,72,72,72,72,72,72,72,72,72,72,72,72,72,19453,72,72,72,72,72,72,72,72,72,72,72,72,72,72,72,72,72,72,72,72,72,72,72,72,72,72,72,72,72,15077,72,72,72,72,72,72,72,72,72,72,72,72,72,72,72,38270,72,72,72,72,35218,22346,
55,72,72,72,72,72,72,72,72,72,72,72,72,72,72,72,72,72,72,72,72,72,72,72,72,72,72,72,72,72,72,72,72,72,72,72,72,72,72,72,72,72,72,72,72,72,72,72,72,72,72,72,72,72,72,72,72,72,72,72,72,72,72,72,72,72,72,72,72,72,72,72,5047,34238,12387,35765,72,56941,72,55364,11272,
56,72,72,72,72,72,72,72,72,72,72,72,72,72,72,72,72,72,72,72,72,72,72,72,72,72,72,72,72,72,72,72,72,72,72,72,72,72,72,72,72,72,72,72,72,72,72,23402,72,72,72,72,72,72,72,72,72,72,72,72,72,72,72,23402,72,72,72,72,72,72,72,72,72,45118,72,72,47787,72,72,72,72,
57,72,72,72,72,72,72,72,72,72,72,72,72,72,72,72,72,72,72,72,72,72,72,72,72,72,72,72,72,17123,72,72,72,72,72,72,72,72,72,72,72,72,72,72,72,72,72,72,72,72,72,72,72,72,72,72,72,72,72,72,72,72,72,72,72,72,72,72,72,72,72,72,72,36788,18707,10625,72,45077,72,43338,72,
58,72,72,72,72,72,72,72,72,72,72,72,72,72,72,72,72,72,72,72,72,72,72,72,72,72,72,72,72,72,72,72,72,72,72,72,72,72,6125,72,72,72,72,72,72,72,72,72,72,72,72,72,72,72,72,72,72,72,72,72,25556,72,72,72,72,72,72,72,72,72,72,72,72,72,59037,72,50179,72,72,15813,72,
59,72,72,72,72,72,72,72,72,72,72,72,72,72,72,72,72,72,72,72,72,72,72,72,72,72,72,72,72,72,72,72,72,72,72,72,72,72,72,72,72,72,72,72,72,72,72,72,72,72,72,72,72,72,72,72,72,72,72,72,72,72,72,72,72,72,72,72,72,72,72,72,72,58349,17217,72,33279,52722,55894,40537,72,
60,72,72,72,72,72,72,72,72,72,72,72,72,72,72,72,72,72,72,72,72,72,72,16313,72,72,72,72,72,72,72,72,72,72,72,21814,72,72,72,72,72,72,72,16313,72,72,72,72,72,72,72,72,72,72,72,72,72,72,72,72,72,72,72,72,72,72,72,72,72,72,72,72,72,8967,72,72,72,72,60059,34998,72,
61,72,72,72,72,72,72,72,72,72,72,72,72,72,72,16313,72,72,72,72,72,72,72,72,72,72,72,72,72,72,72,72,72,72,72,72,72,72,72,72,72,72,72,72,72,72,72,72,72,72,72,72,19880,72,72,72,72,72,23567,72,72,72,72,72,72,72,72,72,72,72,72,72,72,58017,24690,72,34447,72,72,41967,72,
62,72,72,72,72,72,72,72,72,72,72,72,72,72,72,72,72,72,72,72,72,72,72,72,72,72,72,72,72,72,72,72,72,72,72,72,72,72,72,72,72,72,72,72,72,72,72,72,72,72,72,72,72,72,72,72,72,72,72,72,72,72,72,72,72,72,72,72,72,72,72,72,72,72,51239,72,72,58752,28461,72,72,
63,72,72,72,72,72,72,72,72,72,72,72,72,72,72,72,72,72,72,72,72,72,18638,72,72,72,72,72,72,72,72,72,72,72,72,72,72,72,72,72,72,72,72,72,72,72,72,72,72,72,72,72,72,72,72,72,72,72,72,72,72,72,72,72,72,72,72,72,72,72,72,72,72,24865,72,55234,72,72,72,72,72,
64,72,72,72,72,72,72,72,72,72,72,72,72,72,72,72,72,72,72,72,72,72,72,72,72,72,72,72,72,72,72,72,72,72,72,72,72,72,72,72,72,72,72,72,72,72,72,72,72,72,72,72,72,72,72,21253,72,72,72,72,72,72,72,72,72,72,72,72,72,72,72,72,72,39675,72,33728,28733,59490,10993,72,72,
65,72,72,72,72,72,72,72,72,72,72,72,72,72,72,72,72,72,72,72,72,72,23493,72,72,72,72,72,72,72,72,72,72,72,72,72,72,72,72,72,72,72,72,72,72,72,72,72,72,72,72,72,72,72,72,72,72,72,72,72,72,72,72,72,72,72,72,72,72,72,72,72,72,72,37947,10738,72,50014,72,56105,32625,
66,72,72,72,72,72,72,72,72,72,72,72,72,72,72,72,72,72,72,72,72,72,72,72,72,72,72,72,72,72,72,72,72,72,72,72,72,72,72,72,72,72,72,72,72,72,72,72,72,72,72,72,72,72,72,72,72,34412,72,72,72,72,72,72,72,72,72,72,72,72,72,72,72,72,72,60585,28788,18333,72,49422,72,
67,72,72,72,72,72,72,72,72,72,72,72,72,72,13844,72,72,72,72,72,72,72,72,72,72,72,72,72,72,72,72,72,72,72,72,72,72,72,72,72,72,72,72,72,72,72,72,72,72,72,72,72,72,72,72,72,72,72,72,72,72,72,72,72,72,72,72,72,72,72,72,72,72,72,72,72,72,20246,72,39047,72,
68,72,72,72,72,72,72,72,72,72,72,72,72,72,72,72,72,72,72,72,72,72,72,72,72,72,72,72,72,72,72,72,72,72,72,72,72,72,3757,72,72,72,72,72,72,72,72,72,72,72,72,72,72,72,72,72,72,72,72,72,72,3934,72,72,72,3934,72,72,72,72,72,72,72,72,37092,11795,51071,2796,28068,72,47437,
69,72,72,72,72,72,72,72,72,4816,72,72,72,72,72,72,72,72,72,72,72,72,72,72,72,72,72,14938,72,72,72,72,72,72,72,72,72,72,72,72,72,72,72,72,72,72,72,72,72,72,72,72,72,72,72,72,72,72,72,72,72,72,72,72,72,72,72,72,72,72,72,72,72,72,39440,72,19412,27789,72,72,72,
70,72,72,72,72,72,72,72,72,72,72,72,72,72,72,72,72,72,72,72,72,72,72,72,72,72,72,72,72,72,72,72,72,72,72,72,72,72,72,72,72,72,72,72,72,72,72,72,72,72,72,72,72,72,72,72,72,72,72,72,72,72,72,72,72,72,72,72,72,72,72,72,72,30856,49237,35098,72,72,27816,72,48008,
71,72,72,72,72,72,72,72,72,72,72,72,72,72,72,72,72,72,72,72,72,72,72,72,72,72,72,72,72,72,72,72,72,72,72,72,72,72,72,72,72,72,72,72,72,72,72,72,72,72,72,72,72,72,72,72,72,72,72,72,72,72,18544,72,72,72,72,72,72,72,72,72,72,59271,72,72,59296,72,38962,72,72,
72,72,72,72,72,72,72,72,72,72,72,72,72,72,72,72,72,72,72,72,72,72,72,72,72,72,72,72,72,72,72,72,72,72,72,72,72,72,72,72,72,72,72,72,72,72,72,72,72,72,72,72,72,72,72,72,72,72,72,72,72,72,72,72,72,72,72,72,72,72,72,72,72,72,42543,72,48963,53191,49875,59835,45640,
73,72,72,72,72,72,72,72,72,72,72,72,72,72,72,72,72,72,72,72,72,72,72,72,72,72,72,72,72,72,72,72,72,72,72,72,72,72,72,72,72,72,72,72,72,72,72,72,72,72,72,72,72,72,72,72,72,72,72,72,72,72,72,72,72,72,72,72,72,72,72,72,72,72,72,72,58741,72,23824,72,29562,
74,72,72,72,72,72,72,72,72,72,72,72,4211,72,44887,72,72,72,72,72,72,72,72,72,72,72,12088,72,72,72,72,72,72,72,72,72,72,72,72,72,72,72,72,72,72,72,72,72,72,72,72,72,72,72,72,72,72,12088,72,72,72,72,72,72,72,72,72,72,72,72,72,72,72,24551,72,72,72,72,27772,60643,72,
75,72,72,72,72,72,72,72,72,72,72,72,72,72,72,72,72,72,72,72,72,72,72,72,72,72,72,72,72,72,72,72,72,72,11036,72,72,72,72,72,72,72,72,72,72,72,72,72,72,72,72,72,72,72,72,72,72,72,72,72,72,72,72,72,72,72,72,72,72,72,72,11036,72,72,12138,50142,47943,72,52931,36572,72,
76,72,72,72,72,72,72,72,72,72,72,72,35395,72,72,72,72,72,72,72,72,6678,72,72,72,72,72,72,72,72,72,72,72,72,72,72,72,72,72,72,72,72,72,72,72,72,72,72,72,72,72,72,72,72,5514,44700,72,6678,72,72,72,6678,72,72,72,72,72,72,72,72,72,72,72,45458,11403,72,24201,53588,72,15895,38424,
77,72,72,72,72,72,72,72,72,72,72,72,72,72,72,72,72,72,72,72,72,72,72,72,72,72,72,72,72,72,72,72,72,72,72,72,634,72,72,72,72,72,72,72,72,72,72,72,72,72,72,72,72,72,72,72,72,72,72,72,72,5480,72,72,72,72,72,72,72,72,634,634,72,72,72,12801,72,72,14111,2133,72,
78,72,72,72,72,72,72,72,72,72,72,72,72,72,72,634,72,72,72,72,72,72,72,72,72,72,72,72,72,72,72,72,72,72,72,72,72,72,72,72,72,72,72,72,72,72,72,72,72,72,72,72,72,72,72,72,72,72,72,72,72,72,72,72,72,72,72,72,72,72,72,72,72,44076,72,36997,72,72,17785,72,72,
79,72,72,72,72,72,72,72,72,72,72,72,20966,72,72,72,72,72,72,72,72,72,72,72,72,72,72,72,72,72,72,72,72,72,72,72,72,72,72,72,72,72,72,72,72,72,72,72,72,72,72,72,72,72,72,72,72,72,72,72,72,72,72,20966,72,72,72,72,72,72,72,20966,72,72,72,72,72,22254,72,72,72,
80,72,72,72,72,72,72,72,72,72,72,72,72,72,72,72,72,72,72,72,72,72,72,72,72,72,72,72,72,72,72,72,72,72,72,72,72,72,72,72,72,72,72,72,72,72,72,72,72,72,72,72,72,72,72,72,72,72,72,72,72,72,72,72,72,72,72,72,72,72,72,72,72,72,50453,72,72,72,72,72,42545,
81,72,72,72,72,72,72,72,72,72,72,72,72,72,72,72,72,72,72,72,72,72,72,72,72,72,72,72,72,72,72,72,72,72,72,72,72,72,72,72,72,72,72,72,72,72,72,72,39449,72,72,72,72,72,72,72,72,72,72,72,72,72,72,72,72,72,72,72,72,72,72,72,72,39732,72,72,72,10508,72,45755,45856,
82,72,72,72,72,72,72,72,72,72,72,49977,72,72,72,72,72,72,72,72,72,72,72,72,72,72,72,72,72,72,72,72,72,72,72,72,72,72,72,72,72,72,72,72,72,72,72,72,72,72,72,72,72,72,72,72,72,72,72,72,72,72,72,72,72,72,72,72,72,72,72,72,72,72,57450,12504,14367,35704,49743,16958,15705,
83,72,72,72,72,72,72,72,72,11692,72,72,72,72,72,72,24683,72,72,72,72,72,72,72,72,28842,72,72,72,72,72,24683,72,72,72,72,72,72,72,72,72,72,72,72,72,72,72,72,72,72,72,72,72,72,72,72,72,72,72,72,72,72,72,72,72,72,72,72,72,72,72,72,72,42947,72,14885,20060,72,16964,72,72,
84,72,72,72,72,72,72,72,72,72,72,72,72,72,72,72,72,72,72,72,72,72,72,72,72,72,72,72,72,72,72,72,72,72,72,72,72,72,72,72,72,72,72,72,72,72,72,72,72,72,72,72,72,72,72,72,72,72,72,72,72,72,72,72,72,72,72,72,72,72,72,72,72,30144,40574,40892,50843,49748,44216,54122,72,
85,72,72,72,72,72,72,72,72,72,72,72,72,72,72,72,72,72,72,72,72,21838,72,72,72,72,72,72,72,72,72,72,72,72,72,72,72,72,72,72,72,72,72,72,72,72,72,72,15107,72,11831,72,72,72,72,72,72,72,72,72,72,72,72,72,72,72,72,72,72,72,72,72,72,72,53211,72,28731,50143,52369,13359,52191,
86,72,72,72,72,72,72,72,72,72,72,72,72,72,72,72,72,72,72,72,72,72,72,72,72,72,72,72,72,72,72,72,72,72,72,72,72,72,72,72,72,72,72,72,72,72,72,72,72,72,72,72,72,72,72,72,72,72,72,72,72,72,72,72,72,72,72,72,72,72,72,72,72,72,45890,72,72,53419,72,72,23614,
87,72,72,72,72,72,72,72,72,72,72,72,72,72,72,72,72,72,72,72,72,72,72,72,72,72,72,72,72,72,72,72,72,72,72,72,72,72,72,72,72,72,72,72,72,72,72,72,72,72,72,72,72,72,72,72,72,72,72,72,72,72,72,72,72,72,72,72,72,72,72,72,72,13709,72,72,38909,72,13847,72,72,
88,72,72,72,72,72,72,72,72,72,72,72,72,72,72,72,72,72,72,72,72,72,72,72,72,72,72,72,72,72,72,72,72,72,72,72,72,72,72,72,72,72,72,72,72,72,72,72,72,72,72,72,72,72,72,72,72,72,72,72,72,72,72,72,72,72,53165,72,72,72,72,72,72,32646,50475,72,33194,53762,57068,72,58687,
89,72,72,72,72,72,72,72,72,72,72,72,72,72,72,72,72,72,72,72,72,72,72,72,72,72,72,72,72,72,72,72,72,72,72,72,72,72,4450,72,72,72,72,4450,72,72,72,72,72,72,72,72,72,72,72,72,4450,72,72,72,72,72,72,72,72,72,72,72,72,72,72,72,72,72,35420,2967,72,72,51184,72,55654,
90,72,72,72,72,72,72,72,72,72,72,72,72,72,72,72,72,72,72,72,72,72,72,72,72,72,72,72,72,72,72,72,72,72,72,72,72,72,72,72,72,72,72,72,72,72,72,72,72,72,72,72,72,72,72,72,72,72,72,72,72,72,72,72,72,72,72,72,72,72,72,72,72,72,28195,32965,72,72,53074,12173,40411,
91,72,72,72,72,72,72,72,72,72,72,72,4241,72,72,72,72,72,72,72,72,72,72,72,72,72,72,72,72,72,72,72,72,72,72,72,72,72,72,72,72,72,72,72,72,72,72,72,72,4241,72,72,72,72,72,49106,72,72,72,49899,72,72,72,72,72,72,72,72,72,72,72,72,72,72,58588,58241,72,57030,72,57966,19545,
92,72,72,72,72,72,72,72,72,72,72,72,72,72,3621,72,72,72,21813,72,72,72,72,72,72,72,72,72,72,72,72,72,72,72,72,72,72,72,72,922,72,72,72,72,72,72,72,72,72,72,72,72,72,72,3621,72,8354,14844,72,72,72,922,72,3621,72,72,72,72,72,72,72,72,72,28406,922,44673,32741,72,16321,72,30863,
93,72,72,72,72,72,72,72,72,72,72,72,72,72,72,3621,72,72,72,72,72,72,72,72,72,72,72,72,72,72,72,72,72,72,72,72,72,72,72,72,72,72,72,72,72,72,72,72,72,72,72,72,72,72,72,72,72,72,72,72,72,72,8880,72,72,72,72,72,72,72,72,72,72,72,43653,72,20634,36950,49309,72,72,
94,72,72,72,72,72,72,72,72,72,72,72,72,72,72,72,72,72,72,72,72,72,72,72,72,72,72,72,72,72,72,72,72,72,72,72,72,72,72,72,72,72,72,72,72,72,72,72,72,72,72,72,72,72,72,72,72,72,72,72,72,72,72,72,72,72,72,72,72,72,72,72,72,40177,72,72,72,53729,26687,72,36615,
95,72,72,72,72,72,72,72,72,72,72,72,72,72,72,72,72,72,72,72,72,72,72,72,72,72,72,72,72,72,72,72,72,72,72,72,72,72,72,72,72,72,72,72,72,72,72,72,72,72,72,72,72,72,72,72,72,72,72,72,72,72,72,72,72,72,72,72,72,72,72,72,72,24509,32872,72,53160,72,51764,30052,72,
96,72,72,72,72,72,72,72,72,72,72,72,72,72,72,72,72,72,72,72,72,72,72,72,72,72,72,72,72,72,72,72,72,72,72,72,72,72,72,72,72,72,72,72,72,72,72,72,72,72,72,72,72,72,72,72,72,72,72,72,72,72,72,72,72,72,72,72,72,72,72,72,72,22902,72,72,26352,15595,25581,58389,45422,
97,72,72,72,72,72,72,72,72,72,72,72,72,33043,72,72,72,72,72,11214,72,72,72,72,72,72,72,72,72,72,72,72,72,72,72,72,72,72,72,72,72,72,72,72,72,72,72,72,72,72,72,72,72,72,72,72,72,72,72,72,72,72,72,72,72,72,72,72,72,72,72,72,72,16740,72,29785,72,11501,51429,72,15885,
98,72,72,72,72,72,72,72,72,72,72,72,72,72,72,72,72,72,72,72,72,72,72,72,72,72,72,72,72,72,72,72,72,72,72,72,72,23896,72,72,72,72,72,72,72,72,72,72,72,72,72,72,72,72,72,72,72,72,72,72,72,72,72,72,72,72,72,72,72,72,72,72,72,72,72,14538,72,72,72,20797,72,
99,72,72,72,72,72,72,72,72,72,72,72,72,72,72,72,72,72,72,72,72,72,72,72,34020,72,72,72,72,72,72,72,72,72,72,72,72,72,72,72,72,72,72,72,72,72,72,72,72,72,72,72,72,72,72,72,72,72,72,72,72,72,72,72,72,72,72,72,72,72,72,72,72,72,29086,46406,54612,38666,72,72,15024,
100,72,72,72,72,72,72,72,72,72,72,72,72,72,72,72,72,72,72,72,72,72,72,72,72,72,72,72,72,72,72,72,72,72,72,72,72,72,72,72,72,72,72,72,72,72,72,72,72,72,72,72,72,72,72,72,72,72,72,72,72,72,72,72,72,72,72,72,72,72,72,72,72,72,72,72,72,72,16978,72,56275,
